Version identifier: 12.10.0.0 | 2019-11-26 | 843d4de
CPXPARAM_WorkMem                                 28672
Tried aggregator 2 times.
MIP Presolve modified 43 coefficients.
Aggregator did 45 substitutions.
Reduced MIP has 245 rows, 300 columns, and 1155 nonzeros.
Reduced MIP has 300 binaries, 0 generals, 0 SOSs, and 0 indicators.
Presolve time = 0,00 sec. (1,37 ticks)
Found incumbent of value 1341,000000 after 0,01 sec. (2,47 ticks)
Probing time = 0,00 sec. (0,45 ticks)
Tried aggregator 1 time.
Detecting symmetries...
MIP Presolve eliminated 52 rows and 0 columns.
MIP Presolve added 104 rows and 0 columns.
Reduced MIP has 297 rows, 300 columns, and 1207 nonzeros.
Reduced MIP has 300 binaries, 0 generals, 0 SOSs, and 0 indicators.
Presolve time = 0,00 sec. (1,35 ticks)
Probing time = 0,00 sec. (0,44 ticks)
Clique table members: 801.
MIP emphasis: balance optimality and feasibility.
MIP search method: dynamic search.
Parallel mode: deterministic, using up to 16 threads.
Root relaxation solution time = 0,00 sec. (1,49 ticks)

        Nodes                                         Cuts/
   Node  Left     Objective  IInf  Best Integer    Best Bound    ItCnt     Gap

*     0+    0                         1341,0000        0,0000           100,00%
*     0+    0                          732,0000        0,0000           100,00%
      0     0      269,0000   186      732,0000      269,0000      155   63,25%
      0     0      275,9540   186      732,0000     Cuts: 174      261   62,30%
      0     0      285,3680   186      732,0000     Cuts: 174      379   61,02%
      0     0      287,4453   186      732,0000     Cuts: 174      449   60,73%
*     0+    0                          724,0000      287,4453            60,30%
      0     0      289,6713   186      724,0000      Cuts: 98      538   59,99%
      0     0      291,5713   186      724,0000      Cuts: 85      590   59,73%
      0     0      293,1240   186      724,0000      Cuts: 13      631   59,51%
      0     0      294,4582   186      724,0000      Cuts: 21      703   59,33%
      0     0      295,2305   186      724,0000     Cuts: 113      754   59,22%
*     0+    0                          716,0000      295,2305            58,77%
*     0+    0                          707,0000      295,2305            58,24%
*     0+    0                          622,0000      295,2305            52,54%
      0     0      296,7932   186      622,0000      Cuts: 19      823   52,26%
      0     0      311,0499   186      622,0000      Cuts: 81     1040   49,99%
      0     0      312,4522   186      622,0000     Cuts: 139     1113   49,77%
      0     0      313,8670   186      622,0000      Cuts: 21     1188   49,54%
      0     0      315,1141   186      622,0000      Cuts: 25     1282   49,34%
      0     0      315,7873   186      622,0000      Cuts: 36     1338   49,23%
      0     0      316,3767   186      622,0000      Cuts: 24     1421   49,14%
      0     0      316,6880   186      622,0000      Cuts: 92     1462   49,09%
      0     0      316,9376   186      622,0000      Cuts: 10     1538   49,05%
*     0+    0                          612,0000      316,9376            48,21%
      0     0      316,9628   186      612,0000      Cuts: 33     1550   48,21%
      0     0      327,4582   186      612,0000      Cuts: 25     1761   46,49%
      0     0      328,9630   186      612,0000     Cuts: 106     1848   46,25%
      0     0      329,4042   186      612,0000      Cuts: 38     1907   46,18%
      0     0      329,9540   186      612,0000      Cuts: 68     1967   46,09%
      0     0      330,0008   186      612,0000       Cuts: 5     1991   46,08%
*     0+    0                          599,0000      330,0008            44,91%
      0     2      330,0008   298      599,0000      352,6875     1991   41,12%
Elapsed time = 0,60 sec. (335,86 ticks, tree = 0,02 MB, solutions = 8)
   1469  1000      418,0594   255      599,0000      376,8020    58965   37,09%
   3065  1969      565,1308    42      599,0000      454,3019   130710   24,16%

Performing restart 1

Repeating presolve.
Tried aggregator 1 time.
Reduced MIP has 297 rows, 300 columns, and 1207 nonzeros.
Reduced MIP has 300 binaries, 0 generals, 0 SOSs, and 0 indicators.
Presolve time = 0,00 sec. (0,70 ticks)
Tried aggregator 1 time.
Reduced MIP has 297 rows, 300 columns, and 1207 nonzeros.
Reduced MIP has 300 binaries, 0 generals, 0 SOSs, and 0 indicators.
Presolve time = 0,00 sec. (0,95 ticks)
Represolve time = 0,02 sec. (9,48 ticks)
   4566     0      334,4966   298      599,0000      Cuts: 40   209743   21,24%
   4566     0      337,3796   298      599,0000      Cuts: 49   209915   21,24%
   4566     0      338,9707   298      599,0000      Cuts: 25   210012   21,24%
   4566     0      340,8646   298      599,0000      Cuts: 34   210110   21,24%
   4566     0      343,3579   298      599,0000      Cuts: 19   210257   21,24%
   4566     2      343,3579   297      599,0000      471,7861   210257   21,24%
   4586    21      412,9536   251      599,0000      471,7861   213159   21,24%
   6144  1059      446,1521   206      599,0000      471,7861   262986   21,24%
   8321  2737      447,1937   246      599,0000      471,7861   319802   21,24%
  10501  4437      595,8215   135      599,0000      471,7861   378269   21,24%

Performing restart 2

Repeating presolve.
Tried aggregator 1 time.
Reduced MIP has 297 rows, 300 columns, and 1207 nonzeros.
Reduced MIP has 300 binaries, 0 generals, 0 SOSs, and 0 indicators.
Presolve time = 0,00 sec. (0,70 ticks)
Tried aggregator 1 time.
Reduced MIP has 297 rows, 300 columns, and 1207 nonzeros.
Reduced MIP has 300 binaries, 0 generals, 0 SOSs, and 0 indicators.
Presolve time = 0,00 sec. (0,95 ticks)
Represolve time = 0,03 sec. (16,46 ticks)
  10608     0      345,7112   297      599,0000      Cuts: 42   400843   21,24%
  10608     0      347,2704   297      599,0000      Cuts: 55   400990   21,24%
  10608     0      347,9400   297      599,0000      Cuts: 38   401079   21,24%
  10608     0      348,8078   297      599,0000      Cuts: 25   401179   21,24%
  10608     0      349,1260   297      599,0000      Cuts: 51   401248   21,24%
  10608     0      349,8126   297      599,0000      Cuts: 34   401362   21,24%
  10608     2      349,8126   298      599,0000      471,7861   401362   21,24%
* 10859+  134                          596,0000      471,7861            20,84%
  11752   584      486,0443   224      596,0000      471,7861   439705   20,84%
  18842  4060      578,4129   107      596,0000      523,5551   723648   12,16%
Elapsed time = 5,25 sec. (4321,26 ticks, tree = 13,26 MB, solutions = 9)
  27217  3762      591,6637   113      596,0000      567,2507   991739    4,82%

GUB cover cuts applied:  9
Clique cuts applied:  43
Cover cuts applied:  428
Flow cuts applied:  8
Mixed integer rounding cuts applied:  152
Zero-half cuts applied:  18
Lift and project cuts applied:  83
Gomory fractional cuts applied:  18

Root node processing (before b&c):
  Real time             =    0,60 sec. (335,36 ticks)
Parallel b&c, 16 threads:
  Real time             =    6,59 sec. (5345,94 ticks)
  Sync time (average)   =    1,56 sec.
  Wait time (average)   =    0,01 sec.
                          ------------
Total (root+branch&cut) =    7,19 sec. (5681,30 ticks)
